db/data/178301397415672117709127154711405712535.z3.out
-------------------
2500.103528106
